NAME : local_2
TYPE : ATSP
DIMENSION : 27
EDGE_WEIGHT_TYPE : EXPLICIT
EDGE_WEIGHT_FORMAT : FULL_MATRIX
EDGE_WEIGHT_SECTION
0 10000000 10000000 10000000 10000000 952 322 860 10000000 10000000 10000000 10000000 778 707 10000000 10000000 732 10000000 10000000 764 10000000 10000000 10000000 10000000 10000000 10000000 932 
0 0 493 226 10000000 522 10000000 977 10000000 10000000 757 10000000 10000000 10000000 10000000 10000000 10000000 10000000 10000000 10000000 10000000 1050 10000000 796 10000000 936 10000000 
0 493 0 619 954 859 10000000 10000000 10000000 10000000 791 959 10000000 10000000 10000000 10000000 10000000 10000000 981 10000000 10000000 794 10000000 408 960 534 10000000 
0 226 619 0 10000000 297 10000000 771 10000000 10000000 603 915 10000000 10000000 10000000 877 10000000 10000000 10000000 10000000 10000000 10000000 10000000 824 10000000 962 10000000 
0 10000000 992 10000000 0 10000000 10000000 10000000 624 971 10000000 10000000 10000000 413 10000000 10000000 777 862 291 351 10000000 258 10000000 1049 461 794 10000000 
0 522 859 297 10000000 0 855 546 10000000 10000000 525 845 10000000 10000000 10000000 726 10000000 10000000 10000000 10000000 10000000 10000000 10000000 965 10000000 10000000 10000000 
0 10000000 10000000 10000000 10000000 855 0 639 10000000 10000000 954 10000000 627 879 10000000 876 748 10000000 10000000 1002 10000000 10000000 10000000 10000000 10000000 10000000 670 
0 977 10000000 771 10000000 546 639 0 10000000 10000000 369 519 1015 10000000 10000000 283 1035 10000000 10000000 10000000 766 10000000 769 997 10000000 10000000 822 
0 10000000 10000000 10000000 624 10000000 10000000 10000000 0 486 10000000 10000000 991 667 10000000 10000000 559 359 345 742 10000000 755 10000000 976 231 686 10000000 
0 10000000 10000000 10000000 971 10000000 10000000 10000000 486 0 10000000 10000000 582 786 10000000 10000000 364 129 759 911 10000000 10000000 10000000 10000000 705 10000000 836 
0 757 791 603 10000000 525 954 369 10000000 10000000 0 323 10000000 10000000 947 300 10000000 10000000 10000000 10000000 897 10000000 784 658 10000000 812 10000000 
0 10000000 959 915 10000000 845 10000000 519 10000000 10000000 323 0 10000000 10000000 649 257 10000000 10000000 10000000 10000000 678 10000000 502 686 10000000 815 10000000 
0 10000000 10000000 10000000 10000000 10000000 627 990 991 582 10000000 10000000 0 947 10000000 10000000 524 685 10000000 10000000 969 10000000 10000000 10000000 10000000 10000000 356 
0 10000000 10000000 10000000 413 10000000 879 10000000 667 786 10000000 10000000 947 0 10000000 10000000 477 719 499 133 10000000 663 10000000 10000000 642 10000000 10000000 
0 10000000 10000000 10000000 10000000 10000000 10000000 10000000 10000000 10000000 947 649 10000000 10000000 0 869 10000000 10000000 10000000 10000000 875 10000000 623 864 10000000 913 10000000 
0 10000000 10000000 877 10000000 726 876 283 10000000 10000000 300 257 10000000 10000000 869 0 10000000 10000000 10000000 10000000 603 10000000 529 869 10000000 1025 875 
0 10000000 10000000 10000000 777 10000000 748 1263 559 364 10000000 10000000 524 477 10000000 10000000 0 363 664 611 10000000 10000000 10000000 10000000 698 10000000 809 
0 10000000 10000000 10000000 862 10000000 10000000 10000000 359 129 10000000 10000000 685 719 10000000 10000000 363 0 638 836 10000000 10000000 10000000 10000000 578 1049 955 
0 10000000 936 10000000 291 10000000 10000000 10000000 345 759 10000000 10000000 10000000 499 10000000 10000000 664 638 0 516 10000000 416 10000000 913 173 624 10000000 
0 10000000 10000000 10000000 351 10000000 962 10000000 742 911 10000000 10000000 10000000 133 10000000 10000000 611 836 516 0 10000000 590 10000000 10000000 677 10000000 10000000 
0 10000000 10000000 10000000 10000000 10000000 10000000 766 10000000 10000000 897 678 969 10000000 875 603 10000000 10000000 10000000 10000000 0 10000000 264 10000000 10000000 10000000 692 
0 1032 794 10000000 258 10000000 10000000 10000000 755 10000000 10000000 10000000 10000000 663 10000000 10000000 10000000 10000000 416 590 10000000 0 10000000 894 541 705 10000000 
0 10000000 10000000 10000000 10000000 10000000 10000000 769 10000000 10000000 784 502 10000000 10000000 623 529 10000000 10000000 10000000 10000000 264 10000000 0 10000000 10000000 10000000 882 
0 796 408 824 1031 965 10000000 997 948 10000000 658 686 10000000 10000000 864 869 10000000 10000000 892 10000000 10000000 894 10000000 0 809 280 10000000 
0 10000000 960 10000000 461 10000000 10000000 10000000 231 705 10000000 10000000 10000000 642 10000000 10000000 698 578 173 677 10000000 541 10000000 809 0 558 10000000 
0 936 543 962 794 10000000 10000000 10000000 686 10000000 802 815 10000000 10000000 913 1030 10000000 1078 624 10000000 10000000 705 10000000 280 558 0 10000000 
0 10000000 10000000 10000000 10000000 10000000 10000000 10000000 10000000 10000000 10000000 10000000 10000000 10000000 10000000 10000000 10000000 10000000 10000000 10000000 10000000 10000000 10000000 10000000 10000000 10000000 0 
EOF